4775 272
2301 3256
4821 8183
5087 4218
5061 6664
6641 7082
9760 7201
2929 5775
2542 7678
8636 3975
1701 1308
1629 2830
823 9121
3639 3698
6967 8887
5342 6005
3196 8461
8146 2280
3796 2602
2881 691
115 3543
6556 5314
8390 2433
8211 9231
2890 5029
1670 2934
2006 1342
9672 1202
1510 1044
4037 6108
3814 4876
4440 3621
5417 6379
733 4131
406 5176
1662 7005
5891 7717
4724 4810
1859 1859
671 3533
4094 6964
3886 425
4960 8702
4620 2681
6699 6743
7879 1693
5895 5984
6001 8583
1809 9863
6849 5513
